letting n =  10
letting blocks =  [[1, 1], [1, 4], [1, 5], [1, 9], [2, 1], [2, 4], [2, 5], [2, 6], [2, 8], [2, 9], [3, 1], [3, 6], [4, 2], [4, 4], [4, 6], [5, 4], [6, 1], [6, 4], [6, 7], [7, 1], [7, 5], [7, 6], [7, 8], [7, 10], [8, 1], [8, 2], [8, 4], [8, 5], [8, 6], [9, 3], [9, 5], [9, 7], [9, 9], [10, 6], [10, 9], [10, 10]]
